p edge 101 136
n 0
n 1
n 2
n 3
n 4
n 5
n 6
n 7
n 8
n 9
n 10
n 11
n 12
n 13
n 14
n 15
n 16
n 17
n 18
n 19
n 20
n 21
n 22
n 23
n 24
n 25
n 26
n 27
n 28
n 29
n 30
n 31
n 32
n 33
n 34
n 35
n 36
n 37
n 38
n 39
n 40
n 41
n 42
n 43
n 44
n 45
n 46
n 47
n 48
n 49
n 50
n 51
n 52
n 53
n 54
n 55
n 56
n 57
n 58
n 59
n 60
n 61
n 62
n 63
n 64
n 65
n 66
n 67
n 68
n 69
n 70
n 71
n 72
n 73
n 74
n 75
n 76
n 77
n 78
n 79
n 80
n 81
n 82
n 83
n 84
n 85
n 86
n 87
n 88
n 89
n 90
n 91
n 92
n 93
n 94
n 95
n 96
n 97
n 98
n 99
n 100
e 2 0
e 3 1
e 6 2
e 7 3
e 8 3
e 9 7
e 10 7
e 12 5
e 13 6
e 14 6
e 15 4
e 16 4
e 17 8
e 18 8
e 19 10
e 20 10
e 21 13
e 23 15
e 25 9
e 26 9
e 27 11
e 28 11
e 31 16
e 32 16
e 33 14
e 34 14
e 35 18
e 36 18
e 37 17
e 38 17
e 39 19
e 41 21
e 42 21
e 43 22
e 44 22
e 45 25
e 46 25
e 47 23
e 50 24
e 51 20
e 52 20
e 53 27
e 54 27
e 56 26
e 57 1
e 57 4
e 58 13
e 58 22
e 58 57
e 59 19
e 60 0
e 60 59
e 61 1
e 61 60
e 62 15
e 62 24
e 62 61
e 63 40
e 63 59
e 64 26
e 64 55
e 64 63
e 65 30
e 66 5
e 66 11
e 66 65
e 67 12
e 67 65
e 68 24
e 68 49
e 68 67
e 69 2
e 69 5
e 70 12
e 70 69
e 71 29
e 71 70
e 72 23
e 72 48
e 72 71
e 74 73
e 75 73
e 76 74
e 77 74
e 78 75
e 79 75
e 80 76
e 81 76
e 82 80
e 83 80
e 84 28
e 84 78
e 85 29
e 85 30
e 85 78
e 86 79
e 87 33
e 87 34
e 87 79
e 88 77
e 89 31
e 89 32
e 89 77
e 90 37
e 90 38
e 90 81
e 91 35
e 91 36
e 91 81
e 92 39
e 92 40
e 92 83
e 93 51
e 93 52
e 93 83
e 94 41
e 94 42
e 94 86
e 95 43
e 95 44
e 95 86
e 96 47
e 96 48
e 96 88
e 97 49
e 97 50
e 97 88
e 98 45
e 98 46
e 98 82
e 99 55
e 99 56
e 99 82
e 100 53
e 100 54
e 100 84
